;symbolic execution tree
(push)
(assert (le x0 java.lang.Object))
(check-sat)
(push)
(assert (le x1 java.lang.Object))
(check-sat)
(push)
(assert (le x1 java.util.zip.ZipEntry))
(check-sat)
(push)
(assert (le x0 java.io.File))
(check-sat)
(pop)
(push)
(assert (not (le x0 java.io.File)))
(check-sat)
(push)
(assert (le x0 java.io.File))
(check-sat)
(pop)
(push)
(assert (not (le x0 java.io.File)))
(check-sat)
(push)
(assert (le x0 java.io.File))
(check-sat)
(pop)
(push)
(assert (not (le x0 java.io.File)))
(check-sat)
(pop)
(push)
(assert (le x0 java.io.File))
(check-sat)
(pop)
(push)
(assert (not (le x0 java.io.File)))
(check-sat)
(pop)
(pop)
(push)
(assert (le x1 java.util.zip.ZipEntry))
(check-sat)
(pop)
(push)
(assert (not (le x1 java.util.zip.ZipEntry)))
(check-sat)
(pop)
(push)
(assert (le x0 java.io.File))
(check-sat)
(pop)
(push)
(assert (not (le x0 java.io.File)))
(check-sat)
(push)
(assert (le x1 java.util.zip.ZipEntry))
(check-sat)
(pop)
(push)
(assert (not (le x1 java.util.zip.ZipEntry)))
(check-sat)
(pop)
(push)
(assert (le x1 java.util.zip.ZipEntry))
(check-sat)
(pop)
(push)
(assert (not (le x1 java.util.zip.ZipEntry)))
(check-sat)
(pop)
(push)
(assert (le x1 java.util.zip.ZipEntry))
(check-sat)
(pop)
(push)
(assert (not (le x1 java.util.zip.ZipEntry)))
(check-sat)
(pop)
(pop)
(push)
(assert (le x0 java.io.File))
(check-sat)
(pop)
(push)
(assert (not (le x0 java.io.File)))
(check-sat)
(pop)
(push)
(assert (le x1 java.util.zip.ZipEntry))
(check-sat)
(pop)
(push)
(assert (not (le x1 java.util.zip.ZipEntry)))
(check-sat)
(pop)
(push)
(assert (le x0 java.io.File))
(check-sat)
(pop)
(push)
(assert (not (le x0 java.io.File)))
(check-sat)
(push)
(assert (le x0 java.io.File))
(check-sat)
(pop)
(push)
(assert (not (le x0 java.io.File)))
(check-sat)
(pop)
(pop)
(push)
(assert (le x1 java.util.zip.ZipEntry))
(check-sat)
(pop)
(push)
(assert (not (le x1 java.util.zip.ZipEntry)))
(check-sat)
(pop)
(push)
(assert (le x0 java.io.File))
(check-sat)
(pop)
(push)
(assert (not (le x0 java.io.File)))
(check-sat)
(pop)
(push)
(assert (le x0 java.io.File))
(check-sat)
(pop)
(push)
(assert (not (le x0 java.io.File)))
(check-sat)
(push)
(assert (le x1 java.util.zip.ZipEntry))
(check-sat)
(pop)
(push)
(assert (not (le x1 java.util.zip.ZipEntry)))
(check-sat)
(pop)
(pop)
(push)
(assert (le x0 java.io.File))
(check-sat)
(pop)
(push)
(assert (not (le x0 java.io.File)))
(check-sat)
(pop)
(pop)
(push)
(assert (le x0 java.util.zip.ZipEntry))
(check-sat)
(push)
(assert (le x1 java.util.zip.ZipEntry))
(check-sat)
(push)
(assert (le x1 java.util.zip.ZipEntry))
(check-sat)
(push)
(assert (le x1 java.util.zip.ZipEntry))
(check-sat)
(pop)
(push)
(assert (not (le x1 java.util.zip.ZipEntry)))
(check-sat)
(pop)
(pop)
(push)
(assert (not (le x1 java.util.zip.ZipEntry)))
(check-sat)
(pop)
(pop)
(push)
(assert (not (le x1 java.util.zip.ZipEntry)))
(check-sat)
(pop)
(push)
(assert (le x1 java.util.zip.ZipEntry))
(check-sat)
(push)
(assert (le x1 java.util.zip.ZipEntry))
(check-sat)
(pop)
(push)
(assert (not (le x1 java.util.zip.ZipEntry)))
(check-sat)
(pop)
(pop)
(push)
(assert (not (le x1 java.util.zip.ZipEntry)))
(check-sat)
(pop)
(push)
(assert (le x0 java.util.zip.ZipEntry))
(check-sat)
(push)
(assert (le x0 java.util.zip.ZipEntry))
(check-sat)
(pop)
(push)
(assert (not (le x0 java.util.zip.ZipEntry)))
(check-sat)
(pop)
(pop)
(push)
(assert (not (le x0 java.util.zip.ZipEntry)))
(check-sat)
(pop)
(pop)
(push)
(assert (not (le x0 java.util.zip.ZipEntry)))
(check-sat)
(pop)
(pop)
(push)
(assert (not (le x1 java.util.zip.ZipEntry)))
(check-sat)
(push)
(assert (le x0 soot.coffi.CONSTANT_Methodref_info))
(check-sat)
(push)
(assert (le x1 java.util.zip.ZipEntry))
(check-sat)
(pop)
(push)
(assert (not (le x1 java.util.zip.ZipEntry)))
(check-sat)
(push)
(assert (not (le x0 soot.coffi.CONSTANT_Utf8_info)))
(check-sat)
(pop)
(push)
(assert (le x0 soot.coffi.CONSTANT_Utf8_info))
(check-sat)
(pop)
(push)
(assert (not (le x0 soot.coffi.CONSTANT_Utf8_info)))
(check-sat)
(pop)
(push)
(assert (le x0 soot.coffi.CONSTANT_Utf8_info))
(check-sat)
(pop)
(push)
(assert (le x1 java.util.zip.ZipEntry))
(check-sat)
(pop)
(push)
(assert (not (le x1 java.util.zip.ZipEntry)))
(check-sat)
(pop)
(push)
(assert (le x1 java.util.zip.ZipEntry))
(check-sat)
(pop)
(push)
(assert (not (le x1 java.util.zip.ZipEntry)))
(check-sat)
(pop)
(push)
(assert (le x1 java.util.zip.ZipEntry))
(check-sat)
(pop)
(push)
(assert (not (le x1 java.util.zip.ZipEntry)))
(check-sat)
(pop)
(pop)
(push)
(assert (not (le x0 soot.coffi.CONSTANT_Utf8_info)))
(check-sat)
(pop)
(push)
(assert (le x0 soot.coffi.CONSTANT_Utf8_info))
(check-sat)
(push)
(assert (le x1 java.util.zip.ZipEntry))
(check-sat)
(pop)
(push)
(assert (not (le x1 java.util.zip.ZipEntry)))
(check-sat)
(pop)
(pop)
(pop)
(push)
(assert (not (le x0 soot.coffi.CONSTANT_Methodref_info)))
(check-sat)
(pop)
(push)
(assert (le x1 java.util.zip.ZipEntry))
(check-sat)
(pop)
(push)
(assert (not (le x1 java.util.zip.ZipEntry)))
(check-sat)
(pop)
(push)
(assert (le x1 java.util.zip.ZipEntry))
(check-sat)
(pop)
(push)
(assert (not (le x1 java.util.zip.ZipEntry)))
(check-sat)
(push)
(assert (le x1 java.util.zip.ZipEntry))
(check-sat)
(pop)
(push)
(assert (not (le x1 java.util.zip.ZipEntry)))
(check-sat)
(pop)
(pop)
(push)
(assert (le x1 java.util.zip.ZipEntry))
(check-sat)
(pop)
(push)
(assert (not (le x1 java.util.zip.ZipEntry)))
(check-sat)
(push)
(assert (= x0 java.lang.String))
(check-sat)
(pop)
(push)
(assert (not (= x0 java.lang.String)))
(check-sat)
(push)
(assert (le x1 java.util.zip.ZipEntry))
(check-sat)
(pop)
(push)
(assert (not (le x1 java.util.zip.ZipEntry)))
(check-sat)
(pop)
(pop)
(push)
(assert (le x1 java.util.zip.ZipEntry))
(check-sat)
(pop)
(push)
(assert (not (le x1 java.util.zip.ZipEntry)))
(check-sat)
(push)
(assert (le x1 java.util.zip.ZipEntry))
(check-sat)
(pop)
(push)
(assert (not (le x1 java.util.zip.ZipEntry)))
(check-sat)
(pop)
(pop)
(push)
(assert (le x0 java.io.File))
(check-sat)
(pop)
(push)
(assert (not (le x0 java.io.File)))
(check-sat)
(pop)
(push)
(assert (le x1 java.util.zip.ZipEntry))
(check-sat)
(pop)
(push)
(assert (not (le x1 java.util.zip.ZipEntry)))
(check-sat)
(pop)
(pop)
(push)
(assert (le x0 java.io.File))
(check-sat)
(pop)
(push)
(assert (not (le x0 java.io.File)))
(check-sat)
(push)
(assert (le x0 java.io.File))
(check-sat)
(pop)
(push)
(assert (not (le x0 java.io.File)))
(check-sat)
(pop)
(push)
(assert (le x1 java.util.zip.ZipEntry))
(check-sat)
(pop)
(push)
(assert (not (le x1 java.util.zip.ZipEntry)))
(check-sat)
(push)
(assert (le x0 java.io.File))
(check-sat)
(pop)
(push)
(assert (not (le x0 java.io.File)))
(check-sat)
(pop)
(push)
(assert (le x1 java.util.zip.ZipEntry))
(check-sat)
(pop)
(push)
(assert (not (le x1 java.util.zip.ZipEntry)))
(check-sat)
(pop)
(pop)
(push)
(assert (le x0 java.io.File))
(check-sat)
(pop)
(push)
(assert (not (le x0 java.io.File)))
(check-sat)
(push)
(assert (le x0 java.io.File))
(check-sat)
(pop)
(push)
(assert (not (le x0 java.io.File)))
(check-sat)
(pop)
(pop)
(push)
(assert (le x0 java.io.File))
(check-sat)
(pop)
(push)
(assert (not (le x0 java.io.File)))
(check-sat)
(pop)
(push)
(assert (le x0 java.io.File))
(check-sat)
(pop)
(push)
(assert (not (le x0 java.io.File)))
(check-sat)
(pop)
(pop)
(push)
(assert (le x0 java.util.zip.ZipEntry))
(check-sat)
(push)
(assert (le x0 java.util.zip.ZipEntry))
(check-sat)
(pop)
(push)
(assert (not (le x0 java.util.zip.ZipEntry)))
(check-sat)
(pop)
(push)
(assert (le x1 java.util.zip.ZipEntry))
(check-sat)
(pop)
(push)
(assert (not (le x1 java.util.zip.ZipEntry)))
(check-sat)
(push)
(assert (le x1 java.util.zip.ZipEntry))
(check-sat)
(pop)
(push)
(assert (not (le x1 java.util.zip.ZipEntry)))
(check-sat)
(pop)
(pop)
(pop)
(push)
(assert (not (le x0 java.util.zip.ZipEntry)))
(check-sat)
(pop)
(push)
(assert (= x0 java.lang.String))
(check-sat)
(pop)
(push)
(assert (not (= x0 java.lang.String)))
(check-sat)
(pop)
(push)
(assert (le x1 java.util.zip.ZipEntry))
(check-sat)
(pop)
(push)
(assert (not (le x1 java.util.zip.ZipEntry)))
(check-sat)
(push)
(assert (le x1 java.util.zip.ZipEntry))
(check-sat)
(pop)
(push)
(assert (not (le x1 java.util.zip.ZipEntry)))
(check-sat)
(pop)
(push)
(assert (le x1 java.util.zip.ZipEntry))
(check-sat)
(pop)
(push)
(assert (not (le x1 java.util.zip.ZipEntry)))
(check-sat)
(pop)
(push)
(assert (= x0 java.lang.String))
(check-sat)
(pop)
(push)
(assert (not (= x0 java.lang.String)))
(check-sat)
(push)
(assert (le x1 java.util.zip.ZipEntry))
(check-sat)
(pop)
(push)
(assert (not (le x1 java.util.zip.ZipEntry)))
(check-sat)
(push)
(assert (= x0 java.lang.String))
(check-sat)
(pop)
(push)
(assert (not (= x0 java.lang.String)))
(check-sat)
(pop)
(push)
(assert (le x1 java.util.zip.ZipEntry))
(check-sat)
(pop)
(push)
(assert (not (le x1 java.util.zip.ZipEntry)))
(check-sat)
(pop)
(push)
(assert (= x0 java.lang.String))
(check-sat)
(pop)
(push)
(assert (not (= x0 java.lang.String)))
(check-sat)
(pop)
(push)
(assert (= x0 java.lang.String))
(check-sat)
(pop)
(push)
(assert (not (= x0 java.lang.String)))
(check-sat)
(pop)
(pop)
(pop)
(push)
(assert (le x0 java.io.File))
(check-sat)
(push)
(assert (le x0 java.io.File))
(check-sat)
(push)
(assert (le x1 java.util.zip.ZipEntry))
(check-sat)
(pop)
(push)
(assert (not (le x1 java.util.zip.ZipEntry)))
(check-sat)
(pop)
(pop)
(push)
(assert (not (le x0 java.io.File)))
(check-sat)
(pop)
(push)
(assert (le x0 java.io.File))
(check-sat)
(pop)
(push)
(assert (not (le x0 java.io.File)))
(check-sat)
(pop)
(pop)
(push)
(assert (not (le x0 java.io.File)))
(check-sat)
(pop)
(pop)
(push)
(assert (le x1 java.util.zip.ZipEntry))
(check-sat)
(pop)
(push)
(assert (not (le x1 java.util.zip.ZipEntry)))
(check-sat)
(pop)
(push)
(assert (le x1 java.util.zip.ZipEntry))
(check-sat)
(pop)
(push)
(assert (not (le x1 java.util.zip.ZipEntry)))
(check-sat)
(pop)
(push)
(assert (le x1 java.util.zip.ZipEntry))
(check-sat)
(pop)
(push)
(assert (not (le x1 java.util.zip.ZipEntry)))
(check-sat)
(push)
(assert (le x1 java.util.zip.ZipEntry))
(check-sat)
(pop)
(push)
(assert (not (le x1 java.util.zip.ZipEntry)))
(check-sat)
(pop)
(push)
(assert (le x1 java.util.zip.ZipEntry))
(check-sat)
(pop)
(push)
(assert (not (le x1 java.util.zip.ZipEntry)))
(check-sat)
(pop)
(push)
(assert (le x0 java.io.DataInputStream))
(check-sat)
(push)
(assert (le x0 java.io.DataInputStream))
(check-sat)
(pop)
(push)
(assert (not (le x0 java.io.DataInputStream)))
(check-sat)
(pop)
(pop)
(push)
(assert (not (le x0 java.io.DataInputStream)))
(check-sat)
(pop)
(push)
(assert (le x1 java.util.zip.ZipEntry))
(check-sat)
(pop)
(push)
(assert (not (le x1 java.util.zip.ZipEntry)))
(check-sat)
(push)
(assert (= x0 java.lang.String))
(check-sat)
(push)
(assert (le x1 java.util.zip.ZipEntry))
(check-sat)
(pop)
(push)
(assert (not (le x1 java.util.zip.ZipEntry)))
(check-sat)
(pop)
(push)
(assert (le x1 java.util.zip.ZipEntry))
(check-sat)
(pop)
(push)
(assert (not (le x1 java.util.zip.ZipEntry)))
(check-sat)
(pop)
(push)
(assert (= x0 java.lang.String))
(check-sat)
(pop)
(push)
(assert (not (= x0 java.lang.String)))
(check-sat)
(pop)
(pop)
(push)
(assert (not (= x0 java.lang.String)))
(check-sat)
(pop)
(pop)
(push)
(assert (le x1 java.util.zip.ZipEntry))
(check-sat)
(pop)
(push)
(assert (not (le x1 java.util.zip.ZipEntry)))
(check-sat)
(push)
(assert (le x1 java.util.zip.ZipEntry))
(check-sat)
(pop)
(push)
(assert (not (le x1 java.util.zip.ZipEntry)))
(check-sat)
(pop)
(pop)
(push)
(assert (= x0 java.lang.StringBuffer))
(check-sat)
(pop)
(push)
(assert (not (= x0 java.lang.StringBuffer)))
(check-sat)
(pop)
(push)
(assert (le x1 java.util.zip.ZipEntry))
(check-sat)
(pop)
(push)
(assert (not (le x1 java.util.zip.ZipEntry)))
(check-sat)
(pop)
(push)
(assert (le x1 java.util.zip.ZipEntry))
(check-sat)
(pop)
(push)
(assert (not (le x1 java.util.zip.ZipEntry)))
(check-sat)
(pop)
(push)
(assert (= x0 java.lang.String))
(check-sat)
(pop)
(push)
(assert (not (= x0 java.lang.String)))
(check-sat)
(pop)
(pop)
(push)
(assert (= x0 java.lang.String))
(check-sat)
(push)
(assert (= x0 java.lang.String))
(check-sat)
(pop)
(push)
(assert (not (= x0 java.lang.String)))
(check-sat)
(pop)
(push)
(assert (= x0 java.lang.String))
(check-sat)
(pop)
(push)
(assert (not (= x0 java.lang.String)))
(check-sat)
(pop)
(pop)
(push)
(assert (not (= x0 java.lang.String)))
(check-sat)
(push)
(assert (le x1 java.util.zip.ZipEntry))
(check-sat)
(pop)
(push)
(assert (not (le x1 java.util.zip.ZipEntry)))
(check-sat)
(pop)
(push)
(assert (= x0 java.lang.String))
(check-sat)
(pop)
(push)
(assert (not (= x0 java.lang.String)))
(check-sat)
(pop)
(push)
(assert (le x1 java.util.zip.ZipEntry))
(check-sat)
(pop)
(push)
(assert (not (le x1 java.util.zip.ZipEntry)))
(check-sat)
(push)
(assert (le x1 java.util.zip.ZipEntry))
(check-sat)
(pop)
(push)
(assert (not (le x1 java.util.zip.ZipEntry)))
(check-sat)
(pop)
(pop)
(push)
(assert (le x1 java.util.zip.ZipEntry))
(check-sat)
(pop)
(push)
(assert (not (le x1 java.util.zip.ZipEntry)))
(check-sat)
(push)
(assert (= x0 java.lang.String))
(check-sat)
(pop)
(push)
(assert (not (= x0 java.lang.String)))
(check-sat)
(pop)
(push)
(assert (le x1 java.util.zip.ZipEntry))
(check-sat)
(pop)
(push)
(assert (not (le x1 java.util.zip.ZipEntry)))
(check-sat)
(pop)
(push)
(assert (le x1 java.util.zip.ZipEntry))
(check-sat)
(pop)
(push)
(assert (not (le x1 java.util.zip.ZipEntry)))
(check-sat)
(push)
(assert (= x0 java.lang.String))
(check-sat)
(pop)
(push)
(assert (not (= x0 java.lang.String)))
(check-sat)
(pop)
(pop)
(push)
(assert (= x0 java.lang.String))
(check-sat)
(pop)
(push)
(assert (not (= x0 java.lang.String)))
(check-sat)
(push)
(assert (le x1 java.util.zip.ZipEntry))
(check-sat)
(pop)
(push)
(assert (not (le x1 java.util.zip.ZipEntry)))
(check-sat)
(pop)
(pop)
(push)
(assert (le x1 java.util.zip.ZipEntry))
(check-sat)
(pop)
(push)
(assert (not (le x1 java.util.zip.ZipEntry)))
(check-sat)
(pop)
(pop)
(push)
(assert (le x1 java.util.zip.ZipEntry))
(check-sat)
(pop)
(push)
(assert (not (le x1 java.util.zip.ZipEntry)))
(check-sat)
(push)
(assert (= x0 java.lang.String))
(check-sat)
(pop)
(push)
(assert (not (= x0 java.lang.String)))
(check-sat)
(pop)
(push)
(assert (= x0 java.lang.String))
(check-sat)
(pop)
(push)
(assert (not (= x0 java.lang.String)))
(check-sat)
(pop)
(pop)
(pop)
(pop)
